<number of tasks>
50

<cycle time>
1000

<order strength>
0.896


<task times>
1 30
2 130
3 43
4 47
5 104
6 131
7 126
8 31
9 44
10 50
11 49
12 94
13 41
14 52
15 261
16 123
17 172
18 104
19 78
20 109
21 137
22 75
23 328
24 77
25 60
26 101
27 147
28 194
29 39
30 45
31 103
32 136
33 235
34 220
35 156
36 115
37 53
38 192
39 27
40 129
41 131
42 113
43 65
44 153
45 204
46 70
47 242
48 156
49 273
50 48

<precedence relations>
1,4
1,5
1,6
2,4
2,5
2,6
3,4
3,5
3,6
4,7
4,8
5,7
5,8
6,7
6,8
7,9
7,10
8,9
8,10
9,11
9,12
9,13
10,11
10,12
10,13
11,14
11,15
12,14
12,15
13,14
13,15
14,16
14,17
15,16
15,17
16,18
16,19
17,18
17,19
18,20
18,21
18,22
18,23
19,20
19,21
19,22
19,23
20,24
20,25
20,26
21,24
21,25
21,26
22,24
22,25
22,26
23,25
23,26
24,27
24,28
24,32
25,27
25,28
25,29
25,30
25,31
26,27
26,28
26,29
26,30
26,31
27,40
27,43
28,33
28,36
29,32
30,32
30,33
31,32
32,34
32,35
32,36
33,34
33,35
34,41
34,43
35,37
35,38
37,39
37,40
37,41
37,42
38,41
38,45
40,44
40,45
41,50
42,43
42,44
42,45
43,46
43,48
45,46
45,47
45,49
47,50
49,50

<end>
